unsat
(define-fun InvF ((c Int)) Bool (or (= c 4) (and (>= c 0) (not (>= c 5)))))
0.00user 0.01system 0:00.01elapsed 100%CPU (0avgtext+0avgdata 24912maxresident)k
0inputs+8outputs (0major+925minor)pagefaults 0swaps
